Instance: E151-12b.dat
Class:  1
150 --- number of customers (no depot)
12 --- number of vehicles
150 --- number of items
Capacity - height - width of vehicles
   200     40     20
Node - x - y - demand  Readytime Duetime
  0.00   35.00  35.00   0.00 0       551.00
  1.00   41.00  49.00  10.00 261.00  280.00
  2.00   35.00  17.00   7.00 431.00  448.00
  3.00   55.00  45.00  13.00 384.00  403.00
  4.00   55.00  20.00  19.00 263.00  281.00
  5.00   15.00  30.00  26.00 256.00  272.00
  6.00   25.00  30.00   3.00  64.00   79.00
  7.00   20.00  50.00   5.00 431.00  452.00
  8.00   10.00  43.00   9.00 275.00  297.00
  9.00   55.00  60.00  16.00 239.00  265.00
 10.00   30.00  60.00  16.00 278.00  308.00
 11.00   20.00  65.00  12.00 198.00  228.00
 12.00   50.00  35.00  19.00 164.00  191.00
 13.00   30.00  25.00  23.00  39.00   57.00
 14.00   15.00  10.00  20.00 134.00  164.00
 15.00   30.00   5.00   8.00  84.00  101.00
 16.00   10.00  20.00  19.00 223.00  249.00
 17.00    5.00  30.00   2.00 345.00  375.00
 18.00   20.00  40.00  12.00 158.00  179.00
 19.00   15.00  60.00  17.00 378.00  398.00
 20.00   45.00  65.00   9.00 110.00  125.00
 21.00   45.00  20.00  11.00 440.00  460.00
 22.00   45.00  10.00  18.00 239.00  265.00
 23.00   55.00   5.00  29.00 144.00  167.00
 24.00   65.00  35.00   3.00 419.00  447.00
 25.00   65.00  20.00   6.00 435.00  462.00
 26.00   45.00  30.00  17.00 365.00  388.00
 27.00   35.00  40.00  16.00 286.00  303.00
 28.00   41.00  37.00  16.00 108.00  124.00
 29.00   64.00  42.00   9.00 163.00  188.00
 30.00   40.00  60.00  21.00  28.00   50.00
 31.00   31.00  52.00  27.00 351.00  375.00
 32.00   35.00  69.00  23.00 417.00  447.00
 33.00   53.00  52.00  11.00 420.00  441.00
 34.00   65.00  55.00  14.00 100.00  125.00
 35.00   63.00  65.00   8.00 229.00  248.00
 36.00    2.00  60.00   5.00 427.00  449.00
 37.00   20.00  20.00   8.00 249.00  273.00
 38.00    5.00   5.00  16.00 384.00  414.00
 39.00   60.00  12.00  31.00 274.00  296.00
 40.00   40.00  25.00   9.00 369.00  399.00
 41.00   42.00   7.00   5.00 344.00  373.00
 42.00   24.00  12.00   5.00 388.00  416.00
 43.00   23.00   3.00   7.00 186.00  201.00
 44.00   11.00  14.00  18.00  78.00  105.00
 45.00    6.00  38.00  16.00 133.00  157.00
 46.00    2.00  48.00   1.00 241.00  257.00
 47.00    8.00  56.00  27.00 296.00  320.00
 48.00   13.00  52.00  36.00 433.00  461.00
 49.00    6.00  68.00  30.00  74.00  100.00
 50.00   47.00  47.00  13.00 413.00  428.00
 51.00   49.00  58.00  10.00 299.00  325.00
 52.00   27.00  43.00   9.00 231.00  257.00
 53.00   37.00  31.00  14.00 416.00  436.00
 54.00   57.00  29.00  18.00 288.00  317.00
 55.00   63.00  23.00   2.00 379.00  403.00
 56.00   53.00  12.00   6.00 204.00  219.00
 57.00   32.00  12.00   7.00 189.00  219.00
 58.00   36.00  26.00  18.00 415.00  443.00
 59.00   21.00  24.00  28.00 143.00  171.00
 60.00   17.00  34.00   3.00  69.00   97.00
 61.00   12.00  24.00  13.00 270.00  288.00
 62.00   24.00  58.00  19.00 350.00  379.00
 63.00   27.00  69.00  10.00 139.00  155.00
 64.00   15.00  77.00   9.00 305.00  321.00
 65.00   62.00  77.00  20.00 376.00  391.00
 66.00   49.00  73.00  25.00 352.00  380.00
 67.00   67.00   5.00  25.00  63.00   93.00
 68.00   56.00  39.00  36.00 223.00  253.00
 69.00   37.00  47.00   6.00 185.00  210.00
 70.00   37.00  56.00   5.00 448.00  467.00
 71.00   57.00  68.00  15.00 226.00  252.00
 72.00   47.00  16.00  25.00  92.00  120.00
 73.00   44.00  17.00   9.00 281.00  309.00
 74.00   46.00  13.00   8.00  80.00  109.00
 75.00   49.00  11.00  18.00 422.00  445.00
 76.00   49.00  42.00  13.00 411.00  433.00
 77.00   53.00  43.00  14.00 303.00  332.00
 78.00   61.00  52.00   3.00 237.00  258.00
 79.00   57.00  48.00  23.00 283.00  300.00
 80.00   56.00  37.00   6.00 184.00  200.00
 81.00   55.00  54.00  26.00 205.00  227.00
 82.00   15.00  47.00  16.00 165.00  193.00
 83.00   14.00  37.00  11.00 313.00  329.00
 84.00   11.00  31.00   7.00 147.00  174.00
 85.00   16.00  22.00  41.00  38.00   54.00
 86.00    4.00  18.00  35.00 264.00  279.00
 87.00   28.00  18.00  26.00 225.00  252.00
 88.00   26.00  52.00   9.00 432.00  459.00
 89.00   26.00  35.00  15.00 135.00  155.00
 90.00   31.00  67.00   3.00 396.00  422.00
 91.00   15.00  19.00   1.00 317.00  345.00
 92.00   22.00  22.00   2.00   8.00   50.00
 93.00   18.00  24.00  22.00 321.00  350.00
 94.00   26.00  27.00  27.00 421.00  437.00
 95.00   25.00  24.00  20.00  28.00   50.00
 96.00   22.00  27.00  11.00 392.00  418.00
 97.00   25.00  21.00  12.00 369.00  386.00
 98.00   19.00  21.00  10.00  96.00  115.00
 99.00   20.00  26.00   9.00 424.00  454.00
100.00   18.00  18.00  17.00 103.00  128.00
101.00   37.00  52.00   7.00 272.00  298.00
102.00   49.00  49.00  30.00 289.00  317.00
103.00   52.00  64.00  16.00 110.00  126.00
104.00   20.00  26.00   9.00 381.00  409.00
105.00   40.00  30.00  21.00 225.00  247.00
106.00   21.00  47.00  15.00 183.00  204.00
107.00   17.00  63.00  19.00  41.00   61.00
108.00   31.00  62.00  23.00 396.00  417.00
109.00   52.00  33.00  11.00 247.00  272.00
110.00   51.00  21.00   5.00 364.00  385.00
111.00   42.00  41.00  19.00 185.00  209.00
112.00   31.00  32.00  29.00  83.00  108.00
113.00    5.00  25.00  23.00 386.00  404.00
114.00   12.00  42.00  21.00 404.00  429.00
115.00   36.00  16.00  10.00 295.00  315.00
116.00   52.00  41.00  15.00 125.00  144.00
117.00   27.00  23.00   3.00 234.00  251.00
118.00   17.00  33.00  41.00  48.00   66.00
119.00   13.00  13.00   9.00 225.00  241.00
120.00   57.00  58.00  28.00 146.00  173.00
121.00   62.00  42.00   8.00 263.00  278.00
122.00   42.00  57.00   8.00  66.00   88.00
123.00   16.00  57.00  16.00 187.00  204.00
124.00    8.00  52.00  10.00 323.00  348.00
125.00    7.00  38.00  28.00 321.00  341.00
126.00   27.00  68.00   7.00 249.00  273.00
127.00   30.00  48.00  15.00  20.00   50.00
128.00   43.00  67.00  14.00 308.00  326.00
129.00   58.00  48.00   6.00 324.00  352.00
130.00   58.00  27.00  19.00  90.00  119.00
131.00   37.00  69.00  11.00 158.00  181.00
132.00   38.00  46.00  12.00 153.00  177.00
133.00   46.00  10.00  23.00 398.00  421.00
134.00   61.00  33.00  26.00 130.00  157.00
135.00   62.00  63.00  17.00 256.00  280.00
136.00   63.00  69.00   6.00  76.00  104.00
137.00   32.00  22.00   9.00  15.00   50.00
138.00   45.00  35.00  15.00 270.00  297.00
139.00   59.00  15.00  14.00  12.00   50.00
140.00    5.00   6.00   7.00 280.00  299.00
141.00   10.00  17.00  27.00 199.00  222.00
142.00   21.00  10.00  13.00  54.00   82.00
143.00    5.00  64.00  11.00 309.00  326.00
144.00   30.00  15.00  16.00  35.00   52.00
145.00   39.00  10.00  10.00 372.00  389.00
146.00   32.00  39.00   5.00 405.00  426.00
147.00   25.00  32.00  25.00 274.00  299.00
148.00   25.00  55.00  17.00  80.00  103.00
149.00   48.00  28.00  18.00 278.00  299.00
150.00   56.00  37.00  10.00 120.00  147.00
Node - number of items - h - w for each item
    0   0
    1   1   25    4
    2   1   19    3
    3   1   17    9
    4   1    7   13
    5   1   10    7
    6   1   31    4
    7   2    5   15    7   13
    8   1   16    5
    9   2    6   11    9    8
   10   1    5   16
   11   1   24    2
   12   2    6   17   19    3
   13   2    5    8   26    4
   14   2    5   14   12    8
   15   2    7   15   13    6
   16   2    5   18    4   15
   17   2    9    9   13    8
   18   1    6   16
   19   1   36    4
   20   2   12    5   27    3
   21   1    7   10
   22   1    5   15
   23   2    8   14   20    3
   24   2   17    6   32    3
   25   1    6    9
   26   2   16   10    6   10
   27   1   29    2
   28   1    8   15
   29   2   12    6   31    3
   30   2    6   13   27    2
   31   2   17    5   33    2
   32   2    7   12   34    4
   33   1    5   14
   34   2    9    5   26    3
   35   1   22    3
   36   2   14    8   10    6
   37   1   25    3
   38   1   35    3
   39   2   20    4   22    3
   40   1   21    3
   41   1   18    4
   42   2    9    9    7    9
   43   1   10    7
   44   1   20    3
   45   2    6   15    5   13
   46   1   27    3
   47   1   31    3
   48   2   19    5   18    5
   49   1   20    9
   50   2    8    9   33    3
   51   1   19    3
   52   1   18    8
   53   2   32    4   16    4
   54   1   10    8
   55   1    5   10
   56   1    7   17
   57   1   22    3
   58   2   18    9   14    9
   59   1   17    3
   60   1   29    3
   61   2   13    5   16    4
   62   1   26    4
   63   2    6   10   33    3
   64   1   30    4
   65   2   13    6   24    4
   66   1    8    8
   67   2   18    4   31    2
   68   2    9    9   21    3
   69   1   19    6
   70   1   17    8
   71   1    7   13
   72   1   23    3
   73   2    6   10   11    8
   74   2   13    6   20    4
   75   2    7   13   18    4
   76   1   33    2
   77   2    7   15   16    2
   78   2   35    4   30    4
   79   1   24    4
   80   2   11    7   24    3
   81   2    4   15   13    8
   82   2   19    7   19    4
   83   1    4   12
   84   2   14    8   29    4
   85   2    5   18    4   15
   86   2    6   16   24    3
   87   1   13    7
   88   2   16    7   34    4
   89   2    6   15   20    5
   90   1    5   13
   91   1   19    9
   92   2    6   14   26    3
   93   1   24    3
   94   1   20    4
   95   1   18   10
   96   1   30    4
   97   1    5   10
   98   2    4   10   13    8
   99   1   17    4
  100   1    5    9
  101   2   13    8   34    3
  102   2   19    9    8    8
  103   1   33    2
  104   1    6   14
  105   2    5   11    8    4
  106   2    9    8   17    4
  107   2    5   18   26    2
  108   1   29    3
  109   1   11    9
  110   2   16    5   17    4
  111   1   28    2
  112   1   33    3
  113   2    8   13   34    3
  114   2    8    9   11    7
  115   2    7   16    8   13
  116   2   14   10   18    3
  117   1    5   18
  118   1   12    8
  119   1   22    2
  120   2   18    9   18    6
  121   1   20    4
  122   1    6   16
  123   1    5    9
  124   2    5   11   10    8
  125   2   11    9   35    3
  126   2   12    6   16    5
  127   2   18   10   21    4
  128   2   18    9    8    9
  129   2   26    3   22    3
  130   2   15    8   19    4
  131   1    8   18
  132   2    6   11   33    3
  133   2   32    3   29    3
  134   2    4   11   14    8
  135   2    7   12    5   12
  136   1   24    3
  137   2   13    8   26    3
  138   1   12    5
  139   2    7   11    6   10
  140   2    7   17    4   15
  141   1   29    2
  142   2    6   12    6    8
  143   2    5   15    8   12
  144   1   10    7
  145   1   13    7
  146   1    7   11
  147   1    4   15
  148   2    5   12   23    4
  149   2    6    9   22    4
  150   2   10    9   13    5
